732

N   45.00520  6.41812   21.66155 
C   44.79734  5.53730   20.69840 
C   45.79229  4.74311   20.15404 
C   47.09664  4.87104   20.63402 
C   47.31144  5.80561   21.64752 
C   46.23724  6.54102   22.11954 
C   48.19506  4.05232   20.10278 
C   48.20942  3.66649   18.76541 
C   49.24022  2.88409   18.25514 
C   50.27156  2.48742   19.10695 
C   50.26820  2.86954   20.43438 
C   49.23902  3.64583   20.93278 
C   49.24514  2.47388   16.84417 
C   48.05925  2.21767   16.15331 
C   48.12821  1.82449   14.82733 
N   49.26173  1.66900   14.16687 
C   50.38663  1.91019   14.81625 
C   50.43914  2.31456   16.13925 
H   43.77687  5.46198   20.34530 
H   45.55355  4.02268   19.38651 
H   48.30203  5.96709   22.04580 
H   46.37767  7.26930   22.90891 
H   47.42846  4.01612   18.10584 
H   51.06337  1.85835   18.72857 
H   51.06915  2.55776   21.08822 
H   49.22955  3.91905   21.97702 
H   47.10506  2.30208   16.64924 
H   47.22820  1.61896   14.26331 
H   51.29515  1.77269   14.24447 
H   51.38855  2.52056   16.60847 
N   42.94100  6.43789   5.61485  
C   43.01833  5.67647   6.69233  
C   44.15432  5.56508   7.47598  
C   45.29436  6.28681   7.11894  
C   45.20881  7.08541   5.97802  
C   44.01661  7.12352   5.27463  
C   46.52860  6.21685   7.91317  
C   46.88761  5.03974   8.56368  
C   48.04943  4.96613   9.32515  
C   48.86065  6.09644   9.42956  
C   48.51491  7.26745   8.78359  
C   47.35786  7.33156   8.03035  
C   48.41845  3.72264   10.01557 
C   47.45093  2.85683   10.52895 
C   47.86041  1.70455   11.17868 
N   49.12699  1.37074   11.35070 
C   50.04629  2.18680   10.86676 
C   49.75463  3.36127   10.19434 
H   42.11972  5.12748   6.94294  
H   44.14608  4.94590   8.36011  
H   46.06317  7.65104   5.63729  
H   43.92393  7.73934   4.38840  
H   46.27441  4.15896   8.43970  
H   49.75120  6.05909   10.03899 
H   49.14698  8.13881   8.86988  
H   47.08063  8.25737   7.54953  
H   46.40167  3.09140   10.44178 
H   47.13636  1.01234   11.58729 
H   51.07244  1.88195   11.02594 
H   50.54960  3.97475   9.79982  
N   36.68208  13.66078  13.21723 
C   36.99331  12.44440  12.80460 
C   38.03185  12.17040  11.93090 
C   38.80099  13.22816  11.44340 
C   38.46525  14.51062  11.87851 
C   37.40819  14.66392  12.75980 
C   39.92091  13.00237  10.51936 
C   39.87320  11.97097  9.58578  
C   40.93201  11.74361  8.71268  
C   42.05365  12.57046  8.78233  
C   42.10784  13.59946  9.70228  
C   41.05154  13.81686  10.56669 
C   40.87833  10.64817  7.73480  
C   40.22019  9.44930   8.01560  
C   40.21226  8.44936   7.05767  
N   40.80122  8.55767   5.88010  
C   41.42536  9.69018   5.60967  
C   41.49278  10.75931  6.48660  
H   36.37826  11.64513  13.19778 
H   38.25277  11.15136  11.65186 
H   39.00828  15.37258  11.52055 
H   37.13114  15.64876  13.11553 
H   38.98163  11.36529  9.51214  
H   42.89246  12.38738  8.12754  
H   42.97976  14.23474  9.75136  
H   41.11162  14.60647  11.30024 
H   39.74460  9.29417   8.97127  
H   39.71084  7.50888   7.24325  
H   41.89614  9.74365   4.63665  
H   41.99664  11.66884  6.19872  
N   33.80465  13.50580  14.41225 
C   33.51815  12.28066  14.00773 
C   33.03385  11.98044  12.74586 
C   32.82469  13.01972  11.83800 
C   33.12432  14.31158  12.27169 
C   33.60983  14.49153  13.55600 
C   32.31949  12.76578  10.48177 
C   31.42293  11.72842  10.24159 
C   30.94580  11.47445  8.95982  
C   31.37883  12.28043  7.90651  
C   32.26464  13.31517  8.13614  
C   32.73440  13.55907  9.41289  
C   30.00550  10.37282  8.71206  
C   30.05596  9.18879   9.45015  
C   29.14942  8.18194   9.16377  
N   28.23019  8.27014   8.21905  
C   28.17844  9.38856   7.51781  
C   29.02791  10.46285  7.72003  
H   33.68852  11.49618  14.73386 
H   32.84373  10.95531  12.46643 
H   32.96352  15.16036  11.62386 
H   33.85402  15.48411  13.91430 
H   31.06141  11.13917  11.07180 
H   31.03569  12.07655  6.90323  
H   32.59648  13.93419  7.31582  
H   33.44629  14.35295  9.58069  
H   30.80282  9.04995   10.21597 
H   29.16110  7.25255   9.71737  
H   27.41370  9.42573   6.75292  
H   28.92042  11.36047  7.13121  
N   29.54282  6.75669   5.74020  
C   30.72461  6.56346   6.29942  
C   31.88944  7.17486   5.86772  
C   31.83173  8.04371   4.77693  
C   30.58255  8.24054   4.18737  
C   29.48359  7.57910   4.70922  
C   33.03102  8.72872   4.27540  
C   34.27721  8.11132   4.33425  
C   35.41975  8.75503   3.87021  
C   35.30167  10.03925  3.33783  
C   34.06842  10.65788  3.27094  
C   32.93893  10.01102  3.73578  
C   36.73334  8.10053   3.94245  
C   37.06053  7.23127   4.98486  
C   38.31828  6.65224   5.00422  
N   39.24331  6.87791   4.08844  
C   38.93854  7.69977   3.10004  
C   37.71217  8.32970   2.97432  
H   30.73839  5.88330   7.14138  
H   32.82050  6.99609   6.38376  
H   30.47584  8.88373   3.32662  
H   28.50257  7.71902   4.27190  
H   34.34926  7.10032   4.70821  
H   36.18517  10.55906  2.99857  
H   33.98473  11.65252  2.85873  
H   31.98259  10.51061  3.70410  
H   36.35444  7.03058   5.77525  
H   38.60325  5.97378   5.79722  
H   39.71972  7.86121   2.36863  
H   37.51364  8.97155   2.13017  
N   27.95748  -4.92054  5.97813  
C   28.10635  -3.85186  6.74132  
C   27.52909  -2.62370  6.46674  
C   26.74664  -2.48684  5.31909  
C   26.59656  -3.61680  4.51447  
C   27.21674  -4.79578  4.89253  
C   26.10134  -1.21208  4.97610  
C   26.71150  -0.00110  5.29052  
C   26.10454  1.21091   4.97796  
C   24.86509  1.19961   4.33746  
C   24.25430  0.00276   4.01722  
C   24.86434  -1.19657  4.33301  
C   26.75063  2.48563   5.31971  
C   27.53701  2.62251   6.46520  
C   28.11195  3.85198   6.73984  
N   27.95664  4.92032   5.97840  
C   27.21336  4.79588   4.89336  
C   26.59581  3.61583   4.51560  
H   28.71981  -3.98795  7.62271  
H   27.66703  -1.79475  7.14419  
H   26.02147  -3.56962  3.60178  
H   27.11152  -5.68768  4.28699  
H   27.69074  -0.00523  5.74687  
H   24.37225  2.13382   4.11333  
H   23.29432  0.00163   3.52258  
H   24.36934  -2.12784  4.10301  
H   27.67689  1.79135   7.13837  
H   28.72729  3.99146   7.61863  
H   27.10802  5.69068   4.29378  
H   26.02084  3.56969   3.60387  
N   41.25900  -4.92054  4.00795  
C   40.73416  -3.85186  4.58168  
C   40.61139  -2.62370  3.95434  
C   41.06828  -2.48684  2.64263  
C   41.62570  -3.61680  2.04328  
C   41.69082  -4.79578  2.76669  
C   40.96001  -1.21208  1.91990  
C   41.07033  -0.00110  2.59739  
C   40.96042  1.21091   1.92357  
C   40.73779  1.19960   0.54630  
C   40.63177  0.00275   -0.13516 
C   40.74092  -1.19657  0.54304  
C   41.07014  2.48563   2.64620  
C   40.61733  2.62251   3.95978  
C   40.73866  3.85198   4.58529  
N   41.25826  4.92032   4.00742  
C   41.68812  4.79588   2.76444  
C   41.62433  3.61583   2.04334  
H   40.39073  -3.98795  5.59915  
H   40.14896  -1.79475  4.46827  
H   42.01711  -3.56962  1.03802  
H   42.11492  -5.68768  2.32184  
H   41.28616  -0.00523  3.65596  
H   40.62471  2.13381   0.01682  
H   40.45819  0.00162   -1.20104 
H   40.63127  -2.12784  0.00835  
H   40.15950  1.79135   4.47273  
H   40.39844  3.99146   5.60272  
H   42.10736  5.69068   2.32304  
H   42.01504  3.56969   1.03875  
N   26.59379  6.41811   8.51595  
C   26.80166  5.53730   9.47910  
C   25.80671  4.74311   10.02346 
C   24.50236  4.87103   9.54348  
C   24.28755  5.80561   8.52998  
C   25.36176  6.54102   8.05796  
C   23.40393  4.05231   10.07472 
C   23.38958  3.66649   11.41209 
C   22.35877  2.88409   11.92236 
C   21.32744  2.48742   11.07055 
C   21.33079  2.86953   9.74313  
C   22.35997  3.64583   9.24472  
C   22.35385  2.47388   13.33333 
C   23.53975  2.21767   14.02419 
C   23.47079  1.82448   15.35017 
N   22.33727  1.66900   16.01063 
C   21.21237  1.91018   15.36125 
C   21.15985  2.31455   14.03825 
H   27.82212  5.46198   9.83220  
H   26.04544  4.02268   10.79099 
H   23.29696  5.96709   8.13170  
H   25.22133  7.26930   7.26859  
H   24.17053  4.01612   12.07166 
H   20.53563  1.85834   11.44893 
H   20.52985  2.55776   9.08929  
H   22.36944  3.91904   8.20048  
H   24.49394  2.30208   13.52826 
H   24.37080  1.61896   15.91419 
H   20.30384  1.77268   15.93304 
H   20.21045  2.52056   13.56904 
N   28.65800  6.43789   24.56265 
C   28.58067  5.67647   23.48517 
C   27.44468  5.56508   22.70152 
C   26.30464  6.28681   23.05856 
C   26.39019  7.08541   24.19947 
C   27.58239  7.12352   24.90287 
C   25.07040  6.21685   22.26433 
C   24.71139  5.03974   21.61382 
C   23.54957  4.96613   20.85235 
C   22.73835  6.09644   20.74794 
C   23.08409  7.26745   21.39391 
C   24.24114  7.33156   22.14715 
C   23.18056  3.72264   20.16193 
C   24.14808  2.85684   19.64855 
C   23.73859  1.70455   18.99882 
N   22.47201  1.37074   18.82680 
C   21.55272  2.18680   19.31074 
C   21.84437  3.36128   19.98316 
H   29.47929  5.12748   23.23456 
H   27.45293  4.94591   21.81739 
H   25.53583  7.65104   24.54021 
H   27.67508  7.73934   25.78910 
H   25.32459  4.15896   21.73780 
H   21.84780  6.05910   20.13851 
H   22.45202  8.13882   21.30762 
H   24.51837  8.25738   22.62797 
H   25.19733  3.09140   19.73572 
H   24.46264  1.01234   18.59021 
H   20.52656  1.88195   19.15156 
H   21.04940  3.97475   20.37768 
N   34.91694  13.66079  16.96027 
C   34.60572  12.44442  17.37290 
C   33.56716  12.17041  18.24658 
C   32.79803  13.22816  18.73408 
C   33.13376  14.51063  18.29898 
C   34.19083  14.66393  17.41770 
C   31.67810  13.00237  19.65811 
C   31.72580  11.97097  20.59169 
C   30.66699  11.74361  21.46479 
C   29.54535  12.57045  21.39513 
C   29.49116  13.59945  20.47519 
C   30.54746  13.81686  19.61078 
C   30.72067  10.64816  22.44266 
C   31.37881  9.44930   22.16186 
C   31.38673  8.44935   23.11979 
N   30.79777  8.55765   24.29735 
C   30.17363  9.69016   24.56779 
C   30.10621  10.75930  23.69086 
H   35.22076  11.64515  16.97971 
H   33.34625  11.15136  18.52562 
H   32.59073  15.37258  18.65694 
H   34.46788  15.64878  17.06196 
H   32.61737  11.36530  20.66534 
H   28.70654  12.38737  22.04992 
H   28.61924  14.23473  20.42610 
H   30.48739  14.60647  18.87723 
H   31.85441  9.29417   21.20620 
H   31.88816  7.50888   22.93421 
H   29.70284  9.74363   25.54081 
H   29.60235  11.66882  23.97874 
N   37.79435  13.50581  15.76526 
C   38.08085  12.28067  16.16978 
C   38.56515  11.98045  17.43166 
C   38.77431  13.01973  18.33952 
C   38.47468  14.31158  17.90582 
C   37.98917  14.49153  16.62151 
C   39.27951  12.76579  19.69574 
C   40.17607  11.72842  19.93592 
C   40.65320  11.47445  21.21769 
C   40.22017  12.28043  22.27100 
C   39.33436  13.31517  22.04137 
C   38.86460  13.55908  20.76462 
C   41.59350  10.37283  21.46545 
C   41.54304  9.18879   20.72736 
C   42.44958  8.18194   21.01374 
N   43.36880  8.27014   21.95846 
C   43.42056  9.38856   22.65970 
C   42.57109  10.46285  22.45748 
H   37.91048  11.49618  15.44365 
H   38.75527  10.95531  17.71108 
H   38.63548  15.16036  18.55365 
H   37.74498  15.48412  16.26322 
H   40.53759  11.13918  19.10571 
H   40.56330  12.07655  23.27428 
H   39.00252  13.93419  22.86169 
H   38.15271  14.35295  20.59682 
H   40.79618  9.04995   19.96154 
H   42.43789  7.25255   20.46014 
H   44.18530  9.42572   23.42459 
H   42.67858  11.36047  23.04630 
N   42.05621  6.75669   24.43730 
C   40.87441  6.56346   23.87808 
C   39.70959  7.17486   24.30978 
C   39.76731  8.04371   25.40058 
C   41.01648  8.24054   25.99013 
C   42.11544  7.57909   25.46828 
C   38.56802  8.72872   25.90211 
C   37.32182  8.11132   25.84326 
C   36.17929  8.75503   26.30730 
C   36.29737  10.03925  26.83969 
C   37.53062  10.65788  26.90658 
C   38.66010  10.01102  26.44174 
C   34.86569  8.10053   26.23505 
C   34.53850  7.23128   25.19265 
C   33.28075  6.65225   25.17329 
N   32.35572  6.87792   26.08907 
C   32.66049  7.69977   27.07747 
C   33.88686  8.32970   27.20319 
H   40.86064  5.88331   23.03611 
H   38.77853  6.99610   23.79374 
H   41.12320  8.88372   26.85089 
H   43.09646  7.71901   25.90560 
H   37.24977  7.10033   25.46929 
H   35.41387  10.55906  27.17895 
H   37.61431  11.65252  27.31879 
H   39.61645  10.51060  26.47342 
H   35.24459  7.03059   24.40225 
H   32.99578  5.97379   24.38029 
H   31.87931  7.86122   27.80888 
H   34.08540  8.97155   28.04734 
N   43.64151  -4.92054  24.19930 
C   43.49267  -3.85186  23.43611 
C   44.06991  -2.62370  23.71070 
C   44.85234  -2.48684  24.85837 
C   45.00240  -3.61680  25.66299 
C   44.38222  -4.79578  25.28492 
C   45.49763  -1.21208  25.20138 
C   44.88747  -0.00110  24.88694 
C   45.49443  1.21091   25.19952 
C   46.73386  1.19961   25.84005 
C   47.34465  0.00276   26.16030 
C   46.73462  -1.19657  25.84450 
C   44.84835  2.48563   24.85775 
C   44.06200  2.62251   23.71225 
C   43.48706  3.85198   23.43758 
N   43.64235  4.92032   24.19903 
C   44.38561  4.79588   25.28409 
C   45.00315  3.61583   25.66187 
H   42.87923  -3.98795  22.55470 
H   43.93199  -1.79475  23.03325 
H   45.57747  -3.56962  26.57570 
H   44.48743  -5.68768  25.89046 
H   43.90825  -0.00523  24.43057 
H   47.22669  2.13382   26.06420 
H   48.30461  0.00163   26.65497 
H   47.22961  -2.12784  26.07451 
H   43.92214  1.79135   23.03907 
H   42.87174  3.99146   22.55878 
H   44.49093  5.69068   25.88368 
H   45.57810  3.56969   26.57361 
N   30.34001  -4.92054  26.16955 
C   30.86485  -3.85186  25.59583 
C   30.98761  -2.62370  26.22316 
C   30.53073  -2.48684  27.53487 
C   29.97331  -3.61680  28.13422 
C   29.90818  -4.79578  27.41081 
C   30.63899  -1.21208  28.25760 
C   30.52868  -0.00110  27.58011 
C   30.63858  1.21091   28.25393 
C   30.86122  1.19960   29.63120 
C   30.96723  0.00275   30.31266 
C   30.85808  -1.19657  29.63446 
C   30.52887  2.48563   27.53130 
C   30.98167  2.62251   26.21772 
C   30.86035  3.85198   25.59221 
N   30.34075  4.92032   26.17008 
C   29.91088  4.79588   27.41306 
C   29.97468  3.61583   28.13417 
H   31.20828  -3.98795  24.57836 
H   31.45004  -1.79475  25.70923 
H   29.58190  -3.56962  29.13948 
H   29.48408  -5.68768  27.85566 
H   30.31285  -0.00523  26.52154 
H   30.97430  2.13381   30.16068 
H   31.14082  0.00162   31.37854 
H   30.96773  -2.12784  30.16916 
H   31.43951  1.79135   25.70477 
H   31.20056  3.99146   24.57478 
H   29.49164  5.69068   27.85446 
H   29.58397  3.56969   29.13875 
N   26.58897  -6.20518  8.37830  
C   26.80493  -5.68178  9.57250  
C   25.82481  -5.54300  10.54055 
C   24.52723  -5.96969  10.25371 
C   24.30366  -6.51716  8.98996  
C   25.36335  -6.61158  8.10358  
C   23.44477  -5.85622  11.24086 
C   23.41514  -4.79585  12.14217 
C   22.39953  -4.68444  13.08620 
C   21.39918  -5.65645  13.11917 
C   21.41773  -6.70963  12.22555 
C   22.43167  -6.81277  11.29199 
C   22.37859  -3.56668  14.03978 
C   23.55755  -3.00416  14.53261 
C   23.47383  -1.95892  15.43708 
N   22.33246  -1.45684  15.87349 
C   21.21408  -1.98578  15.41012 
C   21.17600  -3.02758  14.49919 
H   27.81977  -5.35824  9.76514  
H   26.07054  -5.13116  11.50757 
H   23.31685  -6.84561  8.69962  
H   25.21607  -7.03697  7.11840  
H   24.17076  -4.02635  12.07828 
H   20.62022  -5.59477  13.86434 
H   20.64081  -7.45902  12.25770 
H   22.45396  -7.65229  10.61383 
H   24.51859  -3.39113  14.23227 
H   24.36811  -1.50036  15.83752 
H   20.29880  -1.54997  15.78906 
H   20.23038  -3.40112  14.13827 
N   28.67668  -6.61671  24.38449 
C   28.56765  -5.55184  23.60934 
C   27.37424  -4.89071  23.37339 
C   26.20845  -5.36594  23.97602 
C   26.32833  -6.49311  24.78958 
C   27.57664  -7.06843  24.95776 
C   24.91244  -4.70461  23.77096 
C   24.61251  -4.09302  22.55703 
C   23.39191  -3.45672  22.35617 
C   22.46082  -3.43944  23.39509 
C   22.74780  -4.04789  24.60153 
C   23.96381  -4.67648  24.79237 
C   23.08485  -2.80636  21.07481 
C   24.07878  -2.19339  20.30954 
C   23.72640  -1.58787  19.11507 
N   22.49055  -1.54827  18.64992 
C   21.54646  -2.12686  19.37046 
C   21.78233  -2.76726  20.57497 
H   29.48769  -5.20793  23.15440 
H   27.35511  -4.00946  22.75036 
H   25.45969  -6.92206  25.26648 
H   27.69616  -7.94124  25.58795 
H   25.32374  -4.15085  21.74588 
H   21.52055  -2.92613  23.25986 
H   22.02279  -4.02950  25.40170 
H   24.19144  -5.12740  25.74634 
H   25.10120  -2.17108  20.65263 
H   24.47230  -1.10479  18.49811 
H   20.54673  -2.07502  18.95922 
H   20.97303  -3.24359  21.10613 
N   34.71290 -13.61966  16.81714 
C   34.75002 -12.47350  17.47412 
C   34.33902 -12.32599  18.78801 
C   33.84910 -13.44002  19.47137 
C   33.80768 -14.64647  18.77172 
C   34.25174 -14.67621  17.46043 
C   33.40414 -13.35028  20.86887 
C   32.80633 -12.18876  21.34964 
C   32.38978 -12.09086  22.67327 
C   32.57805 -13.18173  23.52247 
C   33.16599 -14.34016  23.05296 
C   33.57798 -14.42770  21.73658 
C   31.76645 -10.85895  23.17624 
C   32.13813  -9.60235  22.69450 
C   31.52188  -8.47659  23.21459 
N   30.59510  -8.51680  24.15518 
C   30.23999  -9.70354  24.61434 
C   30.78203 -10.89552  24.16493 
H   35.13261 -11.62738  16.91788 
H   34.41900 -11.36759  19.27811 
H   33.41889 -15.53951  19.23786 
H   34.23385 -15.60161  16.89781 
H   32.62638 -11.36711  20.67166 
H   32.28261 -13.10817  24.55841 
H   33.30968 -15.18014  23.71630 
H   34.06006 -15.32659  21.38334 
H   32.90868  -9.50667  21.94574 
H   31.78623  -7.48833  22.86270 
H   29.47882  -9.69847  25.38366 
H   30.43293 -11.83624  24.56136 
N   37.59103 -13.46226  15.91151 
C   38.21898 -12.31025  16.07043 
C   39.32718 -12.14367  16.88354 
C   39.81939 -13.24358  17.58781 
C   39.14997 -14.45623  17.42009 
C   38.05443 -14.50551  16.57457 
C   40.99589 -13.13343  18.46117 
C   41.25071 -11.95860  19.16295 
C   42.36654 -11.84144  19.98531 
C   43.23596 -12.92640  20.10179 
C   42.98856 -14.09789  19.41296 
C   41.87805 -14.20455  18.59710 
C   42.63373 -10.59564  20.71723 
C   42.29307  -9.34945  20.18787 
C   42.57925  -8.20972  20.92046 
N   43.16764  -8.22705  22.10315 
C   43.49200  -9.40386  22.60832 
C   43.24884 -10.60802  21.96999 
H   37.81335 -11.47538  15.51352 
H   39.81213 -11.18169  16.95090 
H   39.46861 -15.33882  17.95439 
H   37.52093 -15.43612  16.42438 
H   40.54718 -11.14123  19.09881 
H   44.11922 -12.83821  20.71656 
H   43.66653 -14.93321  19.50694 
H   41.70496 -15.11383  18.04174 
H   41.83504  -9.27247  19.21430 
H   42.32776  -7.22896  20.53935 
H   43.97205  -9.38005  23.57798 
H   43.51468 -11.53956  22.44490 
N   42.03666  -6.97244  24.30681 
C   40.88811  -6.41232  23.96949 
C   39.78339  -6.36023  24.80248 
C   39.86799  -6.93230  26.07278 
C   41.08118  -7.52638  26.42207 
C   42.12141  -7.51322  25.50812 
C   38.73336  -6.90361  27.00596 
C   37.42533  -6.96875  26.53431 
C   36.34432  -6.93336  27.40908 
C   36.58787  -6.83254  28.77916 
C   37.88262  -6.77220  29.25670 
C   38.95039  -6.80661  28.37981 
C   34.96587  -6.99472  26.90387 
C   34.61110  -6.42990  25.67733 
C   33.29356  -6.51081  25.25884 
N   32.33630  -7.09224  25.95944 
C   32.66698  -7.62816  27.12078 
C   33.95174  -7.61356  27.63633 
H   40.85195  -5.97914  22.97815 
H   38.88104  -5.86459  24.47809 
H   41.20278  -8.00520  27.38224 
H   43.07428  -7.96383  25.75753 
H   37.25065  -7.09062  25.47516 
H   35.75641  -6.77789  29.46586 
H   38.06360  -6.69299  30.31840 
H   39.95866  -6.73300  28.75817 
H   35.34532  -5.91860  25.07480 
H   32.98577  -6.08420  24.31351 
H   31.85809  -8.09550  27.66718 
H   34.16522  -8.09048  28.58023 
N   45.01002  -6.20519  21.79920 
C   44.79407  -5.68179  20.60500 
C   45.77418  -5.54300  19.63695 
C   47.07176  -5.96969  19.92379 
C   47.29534  -6.51716  21.18754 
C   46.23564  -6.61159  22.07392 
C   48.15422  -5.85623  18.93665 
C   48.18385  -4.79585  18.03533 
C   49.19946  -4.68445  17.09130 
C   50.19981  -5.65646  17.05833 
C   50.18126  -6.70963  17.95195 
C   49.16732  -6.81278  18.88551 
C   49.22040  -3.56669  16.13772 
C   48.04145  -3.00416  15.64489 
C   48.12517  -1.95893  14.74042 
N   49.26653  -1.45685  14.30401 
C   50.38491  -1.98578  14.76738 
C   50.42300  -3.02759  15.67831 
H   43.77922  -5.35824  20.41236 
H   45.52846  -5.13116  18.66993 
H   48.28214  -6.84562  21.47788 
H   46.38293  -7.03698  23.05910 
H   47.42823  -4.02636  18.09922 
H   50.97878  -5.59477  16.31316 
H   50.95819  -7.45902  17.91980 
H   49.14504  -7.65229  19.56367 
H   47.08040  -3.39113  15.94523 
H   47.23089  -1.50036  14.33998 
H   51.30020  -1.54998  14.38844 
H   51.36861  -3.40112  16.03923 
N   42.92233  -6.61671  5.79301  
C   43.03135  -5.55183  6.56816  
C   44.22476  -4.89071  6.80411  
C   45.39055  -5.36594  6.20148  
C   45.27068  -6.49311  5.38792  
C   44.02237  -7.06843  5.21974  
C   46.68656  -4.70461  6.40654  
C   46.98650  -4.09302  7.62047  
C   48.20709  -3.45672  7.82133  
C   49.13818  -3.43944  6.78241  
C   48.85121  -4.04789  5.57597  
C   47.63519  -4.67648  5.38513  
C   48.51416  -2.80636  9.10269  
C   47.52022  -2.19339  9.86796  
C   47.87260  -1.58787  11.06243 
N   49.10845  -1.54827  11.52758 
C   50.05255  -2.12686  10.80704 
C   49.81667  -2.76726  9.60253  
H   42.11131  -5.20793  7.02309  
H   44.24389  -4.00946  7.42713  
H   46.13932  -6.92206  4.91101  
H   43.90284  -7.94124  4.58955  
H   46.27526  -4.15085  8.43162  
H   50.07845  -2.92613  6.91764  
H   49.57621  -4.02950  4.77580  
H   47.40757  -5.12740  4.43116  
H   46.49780  -2.17108  9.52487  
H   47.12670  -1.10478  11.67939 
H   51.05228  -2.07501  11.21828 
H   50.62597  -3.24359  9.07137  
N   36.88613 -13.61965  13.36036 
C   36.84900 -12.47349  12.70337 
C   37.25999 -12.32598  11.38947 
C   37.74991 -13.44001  10.70612 
C   37.79133 -14.64646  11.40578 
C   37.34728 -14.67620  12.71707 
C   38.19486 -13.35027  9.30861  
C   38.79268 -12.18876  8.82784  
C   39.20921 -12.09086  7.50421  
C   39.02094 -13.18174  6.65501  
C   38.43300 -14.34017  7.12453  
C   38.02102 -14.42770  8.44091  
C   39.83255 -10.85896  7.00123  
C   39.46087  -9.60235  7.48297  
C   40.07712  -8.47660  6.96287  
N   41.00390  -8.51681  6.02227  
C   41.35900  -9.70355  5.56312  
C   40.81696 -10.89553  6.01254  
H   36.46641 -11.62736  13.25961 
H   37.18002 -11.36758  10.89937 
H   38.18012 -15.53950  10.93963 
H   37.36517 -15.60159  13.27969 
H   38.97263 -11.36711  9.50582  
H   39.31638 -13.10818  5.61907  
H   38.28930 -15.18015  6.46120  
H   37.53894 -15.32659  8.79415  
H   38.69032  -9.50668  8.23174  
H   39.81277  -7.48834  7.31475  
H   42.12017  -9.69849  4.79379  
H   41.16606 -11.83625  5.61611  
N   34.00797 -13.46225  14.26600 
C   33.38002 -12.31025  14.10708 
C   32.27182 -12.14367  13.29397 
C   31.77961 -13.24358  12.58971 
C   32.44903 -14.45622  12.75742 
C   33.54457 -14.50551  13.60294 
C   30.60312 -13.13343  11.71634 
C   30.34829 -11.95860  11.01456 
C   29.23246 -11.84144  10.19221 
C   28.36304 -12.92640  10.07572 
C   28.61044 -14.09789  10.76455 
C   29.72095 -14.20454  11.58042 
C   28.96527 -10.59564  9.46028  
C   29.30593  -9.34945  9.98964  
C   29.01974  -8.20972  9.25705  
N   28.43136  -8.22705  8.07436  
C   28.10700  -9.40386  7.56920  
C   28.35016 -10.60802  8.20752  
H   33.78565 -11.47537  14.66399 
H   31.78687 -11.18168  13.22661 
H   32.13039 -15.33881  12.22312 
H   34.07808 -15.43612  13.75314 
H   31.05182 -11.14123  11.07870 
H   27.47978 -12.83821  9.46095  
H   27.93247 -14.93321  10.67058 
H   29.89404 -15.11383  12.13578 
H   29.76396  -9.27247  10.96321 
H   29.27123  -7.22896  9.63816  
H   27.62695  -9.38005  6.59953  
H   28.08432 -11.53956  7.73261  
N   39.24349  -6.87713  4.08809  
C   38.31841  -6.65776  5.00613  
C   37.06196  -7.23909  4.98678  
C   36.73442  -8.10456  3.94192  
C   37.71294  -8.32902  2.97296  
C   38.93830  -7.69644  3.09897  
C   35.42057  -8.75836  3.86838  
C   34.27937  -8.11133  4.33384  
C   33.03246  -8.72537  4.27673  
C   32.93666 -10.00984  3.74051  
C   34.06295 -10.65776  3.27175  
C   35.29790 -10.04027  3.33393  
C   31.83301  -8.03968  4.77699  
C   31.89034  -7.16710  5.86539  
C   30.72424  -6.55799  6.29757  
N   29.54309  -6.75749  5.74049  
C   29.48363  -7.58235  4.71028  
C   30.58369  -8.24116  4.18833  
H   38.60049  -5.98096  5.80243  
H   36.35877  -7.04006  5.78116  
H   37.51320  -8.97103  2.12803  
H   39.71561  -7.85818  2.36219  
H   34.35957  -7.10045  4.70646  
H   31.97840 -10.50679  3.71491  
H   33.98147 -11.65242  2.85913  
H   36.17751 -10.56264  2.98955  
H   32.82285  -6.98678  6.37672  
H   30.73425  -5.87614  7.13742  
H   28.50075  -7.72188  4.27931  
H   30.47611  -8.88412  3.32867  
Pd  41.05514  6.73262   4.94671  
Pd  49.21131  0.00000   12.85891 
Pd  28.08189  6.55310   7.12810  
Pd  35.79950  13.66344  15.08871 
Pd  30.54387  6.73263   25.23079 
Pd  22.38769  0.00000   17.31859 
Pd  43.51721  6.55311   23.04941 
Pd  30.54387  -6.73263  25.23079 
Pd  43.51721  -6.55311  23.04941 
Pd  35.79950 -13.66344  15.08871 
Pd  41.05514  -6.73262  4.94671  
Pd  28.08189  -6.55310  7.12810  
